ndtset 1
iomode 3

# SCF calculation
kptopt 1
ngkpt 1 1 1
nshiftk 1
shiftk 0.0 0.0 0.0

diemac1 12.0
tolvrs1 1.0d-8
nstep1 200
nband1 50

# Structure
acell 10.00 6.00 10.00 Angstrom
rprim 1.0 0.0 0.0
      0.0 1.0 0.0
      0.0 0.0 1.0

ntypat 3
znucl 6 1 17

natom 12
typat 3 3 3 1 1 1 1 1 1 2 2 2

xangst
 -0.4870  0.2310 -0.3358
  4.2846 -2.2832 -0.1429
  1.9074 -0.6523  4.4196
  0.8324 -0.3948  0.5751
  2.9683 -1.5204  0.6618
  1.9042 -0.7896  2.7040
  1.8991 -1.0135 -0.0768
  0.8349 -0.2829  1.9655
  2.9708 -1.4085  2.0522
  1.8972 -1.1006 -1.1612
  0.0029  0.1996  2.4739
  3.8048 -1.8039  2.6282

# Plane waves
ecut 20.0
